(set-info :status unknown)
(declare-fun C () (_ BitVec 44))
(declare-fun %b () (_ BitVec 44))
(declare-fun %a () (_ BitVec 44))
(assert
 (let ((?x4297 (ite (bvult %b C) (_ bv1 1) (_ bv0 1))))
 (let ((?x16592 (ite (bvult %a C) (_ bv1 1) (_ bv0 1))))
 (let (($x8831 (and (distinct (bvand ?x16592 ?x4297) (ite (bvult (bvor %a %b) C) (_ bv1 1) (_ bv0 1))) true)))
 (and (and (and (distinct C (_ bv0 44)) true) (= (bvand C (bvsub C (_ bv1 44))) (_ bv0 44))) $x8831)))))
(check-sat)
